
******************************************************************************
This program contains Ipopt, a library for large-scale nonlinear optimization.
 Ipopt is released as open source code under the Eclipse Public License (EPL).
         For more information visit http://projects.coin-or.org/Ipopt

This version of Ipopt was compiled from source code available at
    https://github.com/IDAES/Ipopt as part of the Institute for the Design of
    Advanced Energy Systems Process Systems Engineering Framework (IDAES PSE
    Framework) Copyright (c) 2018-2019. See https://github.com/IDAES/idaes-pse.

This version of Ipopt was compiled using HSL, a collection of Fortran codes
    for large-scale scientific computation.  All technical papers, sales and
    publicity material resulting from use of the HSL codes within IPOPT must
    contain the following acknowledgement:
        HSL, a collection of Fortran codes for large-scale scientific
        computation. See http://www.hsl.rl.ac.uk.
******************************************************************************

This is Ipopt version 3.13.2, running with linear solver ma27.

Number of nonzeros in equality constraint Jacobian...:      958
Number of nonzeros in inequality constraint Jacobian.:        0
Number of nonzeros in Lagrangian Hessian.............:      832

Total number of variables............................:      416
                     variables with only lower bounds:      128
                variables with lower and upper bounds:      224
                     variables with only upper bounds:        0
Total number of equality constraints.................:      415
Total number of inequality constraints...............:        0
        inequality constraints with only lower bounds:        0
   inequality constraints with lower and upper bounds:        0
        inequality constraints with only upper bounds:        0

iter    objective    inf_pr   inf_du lg(mu)  ||d||  lg(rg) alpha_du alpha_pr  ls
   0  0.0000000e+00 2.70e-01 1.33e-15  -1.0 0.00e+00    -  0.00e+00 0.00e+00   0
   1  5.3434671e-01 1.43e-01 3.88e+03  -1.0 1.19e+05    -  7.14e-01 4.67e-01h  1
   2  5.4900719e-01 1.41e-01 3.84e+03  -1.0 5.51e+04    -  8.86e-01 1.19e-02h  1
   3  5.7773681e+00 1.25e-02 4.36e+03  -1.0 1.36e+05    -  8.60e-01 9.90e-01h  1
   4  6.6405888e+00 2.24e-04 2.54e+02  -1.0 1.51e+04    -  9.76e-01 9.90e-01h  1
   5  6.6603706e+00 2.32e-06 2.60e+00  -1.0 4.00e+02    -  9.90e-01 9.90e-01h  1
   6  6.7946118e+00 1.72e-06 4.90e+02  -1.0 3.00e+03    -  9.90e-01 9.90e-01H  1
   7  6.7246614e+00 6.35e-06 3.37e+07  -2.5 4.17e+03    -  9.97e-01 3.70e-01f  2
   8  6.6552325e+00 7.14e-06 6.04e+06  -2.5 1.63e+03    -  1.00e+00 9.49e-01h  1
   9  6.6579631e+00 4.22e-08 4.78e+06  -2.5 6.17e+01    -  1.00e+00 9.97e-01h  1
iter    objective    inf_pr   inf_du lg(mu)  ||d||  lg(rg) alpha_du alpha_pr  ls
  10  6.6579379e+00 1.20e-10 1.68e+09  -2.5 5.61e-01    -  1.00e+00 9.97e-01h  1
In iteration 10, 32 Slacks too small, adjusting variable bounds
  11  6.6579378e+00 6.00e-11 5.95e+11  -2.5 1.63e-03    -  1.00e+00 9.97e-01h  1
  12  6.6579378e+00 2.66e-11 1.23e-02  -2.5 4.60e-06    -  1.00e+00 1.00e+00h  1
  13  6.6578482e+00 1.30e-11 5.80e+11  -9.0 6.49e+01    -  1.00e+00 3.08e-02f  6
  14  6.6550703e+00 1.12e-12 4.33e+07  -9.0 6.20e+01    -  1.00e+00 1.00e+00F  1
  15  6.6550703e+00 6.66e-12 7.25e-09  -9.0 2.04e-05    -  1.00e+00 1.00e+00h  1

Number of Iterations....: 15

                                   (scaled)                 (unscaled)
Objective...............:   6.6550702716076380e+00    6.6550702716076380e+00
Dual infeasibility......:   7.2468537837266922e-09    7.2468537837266922e-09
Constraint violation....:   6.6640026830100396e-12    6.6640026830100396e-12
Complementarity.........:   9.0909167225560811e-10    9.0909167225560811e-10
Overall NLP error.......:   5.8502770592100937e-11    7.2468537837266922e-09


Number of objective function evaluations             = 30
Number of objective gradient evaluations             = 16
Number of equality constraint evaluations            = 30
Number of inequality constraint evaluations          = 0
Number of equality constraint Jacobian evaluations   = 16
Number of inequality constraint Jacobian evaluations = 0
Number of Lagrangian Hessian evaluations             = 15
Total CPU secs in IPOPT (w/o function evaluations)   =      0.034
Total CPU secs in NLP function evaluations           =      0.392

EXIT: Optimal Solution Found.
